NAME          
ROWS
 N  OBJ
 L  c1
 L  c2
 L  c3
 L  c4
COLUMNS
    MARKER    'MARKER'                 'INTORG'
    x[1]      c1        295
    x[1]      c2        692
    x[1]      c3        287
    x[1]      c4        624
    x[1]      OBJ       -627
    x[2]      c1        289
    x[2]      c2        825
    x[2]      c3        302
    x[2]      c4        906
    x[2]      OBJ       -281
    x[3]      c1        416
    x[3]      c2        529
    x[3]      c3        838
    x[3]      c4        998
    x[3]      OBJ       -155
    x[4]      c1        324
    x[4]      c2        840
    x[4]      c3        198
    x[4]      c4        361
    x[4]      OBJ       -441
    x[5]      c1        49
    x[5]      c2        613
    x[5]      c3        883
    x[5]      c4        399
    x[5]      OBJ       -162
    x[6]      c1        64
    x[6]      c2        998
    x[6]      c3        965
    x[6]      c4        126
    x[6]      OBJ       -111
    x[7]      c1        871
    x[7]      c2        251
    x[7]      c3        212
    x[7]      c4        103
    x[7]      OBJ       -662
    x[8]      c1        154
    x[8]      c2        266
    x[8]      c3        656
    x[8]      c4        479
    x[8]      OBJ       -911
    x[9]      c1        348
    x[9]      c2        328
    x[9]      c3        883
    x[9]      c4        19
    x[9]      OBJ       -46
    x[10]     c1        485
    x[10]     c2        250
    x[10]     c3        513
    x[10]     c4        290
    x[10]     OBJ       -768
    x[11]     c1        335
    x[11]     c2        90
    x[11]     c3        581
    x[11]     c4        209
    x[11]     OBJ       -845
    x[12]     c1        268
    x[12]     c2        903
    x[12]     c3        287
    x[12]     c4        534
    x[12]     OBJ       -575
    x[13]     c1        44
    x[13]     c2        465
    x[13]     c3        742
    x[13]     c4        4
    x[13]     OBJ       -684
    x[14]     c1        967
    x[14]     c2        492
    x[14]     c3        320
    x[14]     c4        347
    x[14]     OBJ       -329
    x[15]     c1        899
    x[15]     c2        723
    x[15]     c3        949
    x[15]     c4        357
    x[15]     OBJ       -892
    x[16]     c1        426
    x[16]     c2        633
    x[16]     c3        250
    x[16]     c4        669
    x[16]     OBJ       -568
    x[17]     c1        546
    x[17]     c2        692
    x[17]     c3        867
    x[17]     c4        31
    x[17]     OBJ       -696
    x[18]     c1        715
    x[18]     c2        590
    x[18]     c3        759
    x[18]     c4        976
    x[18]     OBJ       -305
    x[19]     c1        967
    x[19]     c2        399
    x[19]     c3        243
    x[19]     c4        158
    x[19]     OBJ       -649
    x[20]     c1        42
    x[20]     c2        553
    x[20]     c3        279
    x[20]     c4        136
    x[20]     OBJ       -106
    x[21]     c1        578
    x[21]     c2        268
    x[21]     c3        251
    x[21]     c4        239
    x[21]     OBJ       -628
    x[22]     c1        78
    x[22]     c2        976
    x[22]     c3        186
    x[22]     c4        994
    x[22]     OBJ       -14
    x[23]     c1        461
    x[23]     c2        467
    x[23]     c3        534
    x[23]     c4        191
    x[23]     OBJ       -499
    x[24]     c1        154
    x[24]     c2        136
    x[24]     c3        338
    x[24]     c4        171
    x[24]     OBJ       -921
    x[25]     c1        480
    x[25]     c2        363
    x[25]     c3        715
    x[25]     c4        133
    x[25]     OBJ       -112
RHS
    rhs       c1        5128
    rhs       c2        6671
    rhs       c3        6519
    rhs       c4        4727
RANGES
BOUNDS
 BV bounds    x[1]
 BV bounds    x[2]
 BV bounds    x[3]
 BV bounds    x[4]
 BV bounds    x[5]
 BV bounds    x[6]
 BV bounds    x[7]
 BV bounds    x[8]
 BV bounds    x[9]
 BV bounds    x[10]
 BV bounds    x[11]
 BV bounds    x[12]
 BV bounds    x[13]
 BV bounds    x[14]
 BV bounds    x[15]
 BV bounds    x[16]
 BV bounds    x[17]
 BV bounds    x[18]
 BV bounds    x[19]
 BV bounds    x[20]
 BV bounds    x[21]
 BV bounds    x[22]
 BV bounds    x[23]
 BV bounds    x[24]
 BV bounds    x[25]
ENDATA
